p tw 300 4501 7 
1 8 
1 141 
2 9 
2 10 
2 142 
3 7 
3 10 
3 171 
4 8 
4 9 
4 172 
5 7 
5 9 
5 191 
6 8 
6 10 
6 192 
11 17 
11 18 
11 81 
12 19 
12 20 
12 82 
13 17 
13 20 
13 121 
14 18 
14 19 
14 122 
15 17 
15 19 
15 221 
16 18 
16 20 
16 222 
21 27 
21 28 
21 41 
22 29 
22 30 
22 42 
23 27 
23 30 
23 91 
24 28 
24 29 
24 92 
25 27 
25 29 
25 151 
26 28 
26 30 
26 152 
31 37 
31 38 
31 43 
32 39 
32 40 
32 44 
33 37 
33 40 
33 241 
34 38 
34 39 
34 242 
35 37 
35 39 
35 271 
36 38 
36 40 
36 272 
41 47 
41 48 
42 49 
42 50 
43 47 
43 50 
44 48 
44 49 
45 47 
45 49 
45 273 
46 48 
46 50 
46 274 
51 57 
51 58 
51 101 
52 59 
52 60 
52 102 
53 57 
53 60 
53 111 
54 58 
54 59 
54 112 
55 57 
55 59 
55 231 
56 58 
56 60 
56 232 
61 67 
61 68 
61 71 
62 69 
62 70 
62 72 
63 67 
63 70 
63 161 
64 68 
64 69 
64 162 
65 67 
65 69 
65 233 
66 68 
66 70 
66 234 
71 77 
71 78 
72 79 
72 80 
73 77 
73 80 
73 211 
74 78 
74 79 
74 212 
75 77 
75 79 
75 261 
76 78 
76 80 
76 262 
81 87 
81 88 
82 89 
82 90 
83 87 
83 90 
83 201 
84 88 
84 89 
84 202 
85 87 
85 89 
85 223 
86 88 
86 90 
86 224 
91 97 
91 98 
92 99 
92 100 
93 97 
93 100 
93 103 
94 98 
94 99 
94 104 
95 97 
95 99 
95 291 
96 98 
96 100 
96 292 
101 107 
101 108 
102 109 
102 110 
103 107 
103 110 
104 108 
104 109 
105 107 
105 109 
105 293 
106 108 
106 110 
106 294 
111 117 
111 118 
112 119 
112 120 
113 117 
113 120 
113 123 
114 118 
114 119 
114 124 
115 117 
115 119 
115 193 
116 118 
116 120 
116 194 
121 127 
121 128 
122 129 
122 130 
123 127 
123 130 
124 128 
124 129 
125 127 
125 129 
125 181 
126 128 
126 130 
126 182 
131 137 
131 138 
131 183 
132 139 
132 140 
132 184 
133 137 
133 140 
133 243 
134 138 
134 139 
134 244 
135 137 
135 139 
135 281 
136 138 
136 140 
136 282 
141 147 
141 148 
142 149 
142 150 
143 147 
143 150 
143 185 
144 148 
144 149 
144 186 
145 147 
145 149 
145 263 
146 148 
146 150 
146 264 
151 157 
151 158 
152 159 
152 160 
153 157 
153 160 
153 173 
154 158 
154 159 
154 174 
155 157 
155 159 
155 245 
156 158 
156 160 
156 246 
161 167 
161 168 
162 169 
162 170 
163 167 
163 170 
163 251 
164 168 
164 169 
164 252 
165 167 
165 169 
165 275 
166 168 
166 170 
166 276 
171 177 
171 178 
172 179 
172 180 
173 177 
173 180 
174 178 
174 179 
175 177 
175 179 
175 253 
176 178 
176 180 
176 254 
181 187 
181 188 
182 189 
182 190 
183 187 
183 190 
184 188 
184 189 
185 187 
185 189 
186 188 
186 190 
191 197 
191 198 
192 199 
192 200 
193 197 
193 200 
194 198 
194 199 
195 197 
195 199 
195 283 
196 198 
196 200 
196 284 
201 207 
201 208 
202 209 
202 210 
203 207 
203 210 
203 213 
204 208 
204 209 
204 214 
205 207 
205 209 
205 265 
206 208 
206 210 
206 266 
211 217 
211 218 
212 219 
212 220 
213 217 
213 220 
214 218 
214 219 
215 217 
215 219 
215 255 
216 218 
216 220 
216 256 
221 227 
221 228 
222 229 
222 230 
223 227 
223 230 
224 228 
224 229 
225 227 
225 229 
225 235 
226 228 
226 230 
226 236 
231 237 
231 238 
232 239 
232 240 
233 237 
233 240 
234 238 
234 239 
235 237 
235 239 
236 238 
236 240 
241 247 
241 248 
242 249 
242 250 
243 247 
243 250 
244 248 
244 249 
245 247 
245 249 
246 248 
246 250 
251 257 
251 258 
252 259 
252 260 
253 257 
253 260 
254 258 
254 259 
255 257 
255 259 
256 258 
256 260 
261 267 
261 268 
262 269 
262 270 
263 267 
263 270 
264 268 
264 269 
265 267 
265 269 
266 268 
266 270 
271 277 
271 278 
272 279 
272 280 
273 277 
273 280 
274 278 
274 279 
275 277 
275 279 
276 278 
276 280 
281 287 
281 288 
282 289 
282 290 
283 287 
283 290 
284 288 
284 289 
285 287 
285 289 
285 295 
286 288 
286 290 
286 296 
291 297 
291 298 
292 299 
292 300 
293 297 
293 300 
294 298 
294 299 
295 297 
295 299 
296 298 
296 300 
